c CNF generator v0.9
p cnf 50 50
-35 -20 -24 0
-8 -26 -47 0
30 8 -21 0
-29 -23 -50 0
9 -45 28 0
-12 -50 14 0
12 12 19 0
-3 -26 -43 0
-13 3 2 0
-27 -29 -11 0
22 -38 -2 0
50 -35 46 0
-39 49 20 0
-42 20 14 0
-36 36 12 0
21 35 -12 0
-50 6 -37 0
-33 20 -40 0
22 -41 -15 0
36 -29 -39 0
-35 -34 38 0
34 13 22 0
-27 1 7 0
45 -14 38 0
2 28 -32 0
-27 -20 -45 0
-18 -20 23 0
1 -13 37 0
-1 29 -38 0
-11 -29 -18 0
46 -40 -17 0
-48 49 10 0
-10 17 9 0
47 -26 41 0
-9 20 -32 0
-27 -33 14 0
6 11 -1 0
28 -6 50 0
35 -9 -36 0
42 30 29 0
-34 -48 11 0
19 -19 27 0
8 14 41 0
47 43 35 0
-14 2 -15 0
-16 -20 -32 0
-13 32 -4 0
7 -22 40 0
-19 12 21 0
39 -41 -48 0
